n = 28;
lu = [|-759, 177
      |-554, 780
      |-496, 20
      |-696, 616
      |-554, -500
      |-310, 312
      |673, 767
      |-499, -483
      |-717, 732
      |-660, 572
      |-505, -311
      |313, 715
      |132, 293
      |-365, 60
      |-594, 430
      |-743, -543
      |-85, 41
      |-378, -363
      |-108, 18
      |-37, 438
      |-354, -280
      |-340, 698
      |68, 413
      |337, 573
      |-679, -662
      |-416, -56
      |-509, -367
      |-482, -14|];
